proyfinal/src/viki/013/andrea/andrea-localstore/experimentInOfficeAgust.take6/worker_3/ea067a38-0e69-40d6-a2d8-52e7db121e91.als.cnf.out
Reading from standard input... Use '--help' for help.
============================[ Problem Statistics ]=============================
|                                                                             |
|  Number of variables:         87638                                         |
|  Number of clauses:          161767                                         |
|  Parse time:                   0.03 s                                       |
|                                                                             |
============================[ Search Statistics ]==============================
| Conflicts |          ORIGINAL         |          LEARNT          | Progress |
|           |    Vars  Clauses Literals |    Limit  Clauses Lit/Cl |          |
===============================================================================
|       100 |   62629   106081   265233 |    38896      100     41 | 28.537 % |
|       250 |   62611   106011   265061 |    42786      249     76 | 28.557 % |
|       475 |   62611   106011   265061 |    47064      474    104 | 28.557 % |
|       812 |   44133    51417   131057 |    51771      796     72 | 49.642 % |
|      1318 |   44133    51417   131057 |    56948     1302     55 | 49.642 % |
|      2077 |   44132    51373   130967 |    62642     2057     44 | 49.643 % |
|      3216 |   43100    48345   123031 |    68907     1742     31 | 50.820 % |
===============================================================================
restarts              : 19
conflicts             : 3676           (10822 /sec)
decisions             : 13506          (0.00 % random) (39763 /sec)
propagations          : 4779294        (14070652 /sec)
conflict literals     : 127198         (29.83 % deleted)
Memory used           : 24.49 MB
CPU time              : 0.339664 s

UNSATISFIABLE
